c description: tiling of 
c generator: CNFgen (0.9.0)
c copyright: (C) 2012-2020 Massimo Lauria <massimo.lauria@uniroma1.it>
c url: https://massimolauria.net/cnfgen
c
p cnf 20 108
-1 -2 0
-1 -5 0
-1 -12 0
-1 -13 0
-2 -5 0
-2 -12 0
-2 -13 0
-5 -12 0
-5 -13 0
-12 -13 0
1 2 5 12 13 0
-1 -3 0
-1 -5 0
-1 -6 0
-1 -8 0
-1 -10 0
-1 -12 0
-3 -5 0
-3 -6 0
-3 -8 0
-3 -10 0
-3 -12 0
-5 -6 0
-5 -8 0
-5 -10 0
-5 -12 0
-6 -8 0
-6 -10 0
-6 -12 0
-8 -10 0
-8 -12 0
-10 -12 0
1 3 5 6 8 10 12 0
-1 -3 0
-1 -9 0
-3 -9 0
1 3 9 0
-1 -5 0
-1 -12 0
-5 -12 0
1 5 12 0
-1 -6 0
-1 -9 0
-6 -9 0
1 6 9 0
-1 -8 0
-1 -13 0
-8 -13 0
1 8 13 0
-1 -9 0
-1 -10 0
-9 -10 0
1 9 10 0
-2 -3 0
-2 -6 0
-2 -9 0
-2 -10 0
-2 -16 0
-2 -19 0
-3 -6 0
-3 -9 0
-3 -10 0
-3 -16 0
-3 -19 0
-6 -9 0
-6 -10 0
-6 -16 0
-6 -19 0
-9 -10 0
-9 -16 0
-9 -19 0
-10 -16 0
-10 -19 0
-16 -19 0
2 3 6 9 10 16 19 0
-2 -9 0
-2 -12 0
-9 -12 0
2 9 12 0
-4 -11 0
4 11 0
-4 -11 0
-4 -18 0
-11 -18 0
4 11 18 0
-7 -8 0
-7 -12 0
-7 -13 0
-8 -12 0
-8 -13 0
-12 -13 0
7 8 12 13 0
-7 -11 0
-7 -18 0
-11 -18 0
7 11 18 0
-7 -13 0
-7 -18 0
-13 -18 0
7 13 18 0
-9 -16 0
9 16 0
-9 -19 0
9 19 0
14 0
15 0
17 0
20 0